NAME: S101D1_20
COMMENT: 742.97
VEHICLE: 5
TIME: 94.5263
DIMENSION: 101
CAPACITY: 160
DELIVERY_SECTION
0 0 0
1 1 1.6
2 1 1.4
3 2 1.6
4 2 1.6
5 2 0.8
6 3 1.6
7 3 1.6
8 3 1.6
9 3 0.2
10 4 8
11 4 1.6
12 4 1.6
13 4 1.6
14 4 1.2
15 5 1.6
16 5 0.4
17 6 1.6
18 6 1.6
19 6 1.6
20 6 0.2
21 7 1.6
22 7 1.6
23 7 1.6
24 7 0.2
25 8 8
26 8 1
27 9 1.6
28 9 0.4
29 10 8
30 10 1.6
31 10 0.4
32 11 1.6
33 11 1.6
34 11 1.6
35 11 0.2
36 12 1.6
37 12 1.6
38 12 0.8
39 13 1.6
40 13 0.4
41 14 8
42 14 1.6
43 14 1.6
44 14 1.6
45 14 1.2
46 15 1.6
47 15 1.6
48 15 0.8
49 16 1.6
50 16 1.6
51 16 1.6
52 16 0.2
53 17 1.6
54 17 1.4
55 18 8
56 18 1.6
57 18 1.6
58 18 1.6
59 18 1.6
60 18 0.6
61 19 1.6
62 19 1.6
63 19 0.8
64 20 8
65 20 1.6
66 20 0.4
67 21 1.6
68 21 1.4
69 22 8
70 22 1.6
71 22 1.6
72 22 1.6
73 22 1.2
74 23 1.6
75 23 0.4
76 24 8
77 24 1.6
78 24 1.6
79 24 1.6
80 24 0.2
81 25 1.6
82 25 1.4
83 26 8
84 26 1.6
85 26 0.4
86 27 1.6
87 27 1.4
88 28 8
89 28 1.6
90 28 1.6
91 28 1.6
92 28 1.6
93 28 0.6
94 29 1.6
95 29 1.6
96 29 0.8
97 30 1.6
98 30 1.6
99 30 0.8
100 31 1.6
101 31 1.6
102 31 1.6
103 31 0.2
104 32 8
105 32 1.6
106 32 1.6
107 32 1.6
108 32 1.6
109 32 0.6
110 33 1.6
111 33 1.6
112 33 0.8
113 34 1.6
114 34 1.6
115 34 1.6
116 34 0.2
117 35 8
118 36 8
119 36 1.6
120 36 1.6
121 36 1.6
122 36 1.6
123 36 0.6
124 37 1.6
125 37 1.6
126 37 1.6
127 37 0.2
128 38 8
129 38 1.6
130 38 0.4
131 39 8
132 39 1.6
133 39 0.4
134 40 8
135 40 1.6
136 40 1.6
137 40 1.6
138 40 0.2
139 41 1.6
140 41 1.6
141 41 1.6
142 41 1.2
143 42 8
144 42 1.6
145 42 1.6
146 42 1.6
147 42 1.2
148 43 8
149 43 1.6
150 43 1.6
151 43 1.6
152 43 0.2
153 44 8
154 44 1.6
155 44 1.4
156 45 8
157 46 8
158 46 1.6
159 46 1.6
160 46 1.6
161 46 1.6
162 46 0.6
163 47 8
164 47 1.6
165 47 1.6
166 47 1.6
167 47 1.6
168 47 0.6
169 48 8
170 48 1.6
171 48 0.4
172 49 8
173 49 1
174 50 8
175 50 1.6
176 50 1.6
177 50 1.6
178 50 1.6
179 50 0.6
180 51 8
181 51 1.6
182 51 1.6
183 51 1.6
184 51 1.6
185 51 0.6
186 52 8
187 53 8
188 53 1.6
189 53 1.4
190 54 8
191 54 1.6
192 54 1.6
193 54 1.6
194 54 1.2
195 55 8
196 55 1.6
197 55 1.6
198 55 1.6
199 55 1.6
200 55 0.6
201 56 1.6
202 56 1.6
203 56 1.6
204 56 1.6
205 56 0.6
206 57 8
207 57 1.6
208 57 1.6
209 57 1.6
210 57 0.2
211 58 8
212 58 1.6
213 58 1.4
214 59 8
215 59 1.6
216 59 1.6
217 59 0.8
218 60 1.6
219 60 1.6
220 60 1.6
221 60 0.2
222 61 8
223 61 1.6
224 61 1.6
225 61 1.6
226 61 1.2
227 62 8
228 63 1.6
229 63 1.6
230 63 1.6
231 63 1.6
232 63 0.6
233 64 1.6
234 64 1.6
235 64 0.8
236 65 8
237 65 1.6
238 65 1.6
239 65 1.6
240 65 1.6
241 65 0.6
242 66 1.6
243 66 1.6
244 66 1.6
245 66 1.2
246 67 1.6
247 67 0.4
248 68 1.6
249 68 1.6
250 68 0.8
251 69 8
252 69 1.6
253 69 1.6
254 69 1.6
255 69 1.6
256 69 0.6
257 70 1.6
258 70 1.4
259 71 8
260 72 1.6
261 72 1.4
262 73 8
263 73 1.6
264 73 1.6
265 73 1.6
266 73 1.2
267 74 1.6
268 74 0.4
269 75 8
270 75 1.6
271 75 1.6
272 75 1.6
273 75 0.2
274 76 1.6
275 76 1.4
276 77 8
277 77 1.6
278 77 1.4
279 78 1.6
280 78 1.4
281 79 8
282 79 1.6
283 79 1.6
284 79 1.6
285 79 1.6
286 79 0.6
287 80 1.6
288 80 1.4
289 81 1.6
290 81 1.6
291 81 1.6
292 81 1.6
293 81 0.6
294 82 1.6
295 82 1.6
296 82 0.8
297 83 8
298 83 1.6
299 83 1.6
300 83 1.6
301 83 1.6
302 83 0.6
303 84 1.6
304 84 0.4
305 85 1.6
306 85 0.4
307 86 1.6
308 86 1.6
309 86 1.6
310 86 0.2
311 87 8
312 87 1.6
313 87 1.6
314 87 0.8
315 88 1.6
316 88 0.4
317 89 8
318 90 1.6
319 90 1.6
320 90 1.6
321 90 0.2
322 91 1.6
323 91 1.6
324 91 1.6
325 91 1.2
326 92 1.6
327 92 0.4
328 93 8
329 93 1.6
330 93 1.6
331 93 1.6
332 93 0.2
333 94 1.6
334 94 1.6
335 94 1.6
336 94 0.2
337 95 1.6
338 95 0.4
339 96 1.6
340 96 0.4
341 97 8
342 97 1.6
343 97 1.6
344 97 1.6
345 97 1.6
346 97 0.6
347 98 1.6
348 98 1.6
349 98 0.8
350 99 8
351 100 1.6
352 100 1.4
PICKUP_SECTION
NODE_SECTION
35 35

41 49

35 17

55 45

55 20

15 30

25 30

20 50

10 43

55 60

30 60

20 65

50 35

30 25

15 10

30  5

10 20

 5 30

20 40

15 60

45 65

45 20

45 10

55  5

65 35

65 20

45 30

35 40

41 37

64 42

40 60

31 52

35 69

53 52

65 55

63 65

 2 60

20 20

 5  5

60 12

40 25

42  7

24 12

23  3

11 14

 6 38

 2 48

 8 56

13 52
 
6 68

47 47

49 58

27 43

37 31

57 29

63 23

53 12

32 12

36 26

21 24

17 34

12 24

24 58

27 69

15 77

62 77

49 73

67  5

56 39

37 47

37 56

57 68

47 16

44 17

46 13

49 11

49 42

53 43

61 52

57 48

56 37

55 54

15 47

14 37

11 31

16 22

 4 18

28 18

26 52

26 35

31 67

15 19

22 22

18 24

26 27

25 24

22 27

25 21

19 21

20 26

18 18
DISTANCE_SECTION
DEPOT_SECTION
0
EOF